SPARKNaCl/why3-cvc5/sparknacl-utils.adb_15_32_range_check_1.smt2
;; produced by cvc5.drv ;;
(set-logic ALL)
(set-info :smt-lib-version 2.6)
;;; generated by SMT-LIB2 driver
;;; SMT-LIB2 driver: bit-vectors, common part
;;; SMT-LIB2: integer arithmetic
;; "pow2"
(declare-fun pow2 (Int) Int)

(declare-const two_power_size_minus_one Int)

;; "two_power_size_minus_one_val"
(assert (= two_power_size_minus_one (pow2 (- 8 1))))

;; "min"
(define-fun min ((x Int) (y Int)) Int
  (ite (<= x y) x y))

;; "max"
(define-fun max ((x Int) (y Int)) Int
  (ite (<= x y) y x))

;; "Min_r"
(assert (forall ((x Int) (y Int)) (=> (<= y x) (= (min x y) y))))

;; "Max_l"
(assert (forall ((x Int) (y Int)) (=> (<= y x) (= (max x y) x))))

;; "Min_comm"
(assert (forall ((x Int) (y Int)) (= (min x y) (min y x))))

;; "Max_comm"
(assert (forall ((x Int) (y Int)) (= (max x y) (max y x))))

;; "Min_assoc"
(assert
  (forall ((x Int) (y Int) (z Int)) (= (min (min x y) z) (min x (min y z)))))

;; "Max_assoc"
(assert
  (forall ((x Int) (y Int) (z Int)) (= (max (max x y) z) (max x (max y z)))))

(declare-const two_power_size_minus_one1 Int)

;; "two_power_size_minus_one_val"
(assert (= two_power_size_minus_one1 (pow2 (- 64 1))))

(declare-sort byte 0)

;; "to_rep"
(declare-fun to_rep (byte) (_ BitVec 8))

;; "of_rep"
(declare-fun of_rep ((_ BitVec 8)) byte)

;; "inversion_axiom"
(assert
  (forall ((x byte)) (! (= (of_rep (to_rep x)) x) :pattern ((to_rep x)) )))

;; "range_axiom"
(assert true)

;; "coerce_axiom"
(assert
  (forall ((x (_ BitVec 8)))
    (! (= (to_rep (of_rep x)) x) :pattern ((to_rep (of_rep x))) )))

(declare-sort map1 0)

;; "has_bounds"
(declare-fun has_bounds (map1
  Int
  Int) Bool)

;; "get"
(declare-fun get (map1
  Int) byte)

(declare-const input (_ BitVec 64))

;; Goal "def'vc"
;; File "sparknacl-utils.ads", line 15, characters 0-0
(assert
  (not
  (forall ((output map1))
    (=>
      (has_bounds output 0 7)
      (forall ((x (_ BitVec 64)))
        (=>
          (= x input)
          (forall ((i Int))
            (=>
              (= i 0)
              (=>
                (= (and (ite (<= 0 i) true false) (ite (<= i 7) true false)) true)
                (forall ((output1 map1) (x1 (_ BitVec 64)) (i1 Int))
                  (=>
                    (= (and (ite (and
                                   (has_bounds output1 0 7)
                                   (forall ((temp___684 Int))
                                     (=>
                                       (and
                                         (<= 0 temp___684)
                                         (<= temp___684 7))
                                       (=>
                                         (or
                                           (< 7 temp___684)
                                           (or
                                             (< temp___684 0)
                                             (<= i1 temp___684)))
                                         (= (get output1 temp___684) 
                                         (get
                                           output
                                           temp___684))))))
                              true
                              false) (ite (and (<= 0 i1) (<= i1 7))
                                       true
                                       false)) true)
                    (bvule ((_ zero_extend 56) #x00) (bvand x1 #x00000000000000FF)))))))))))))

(check-sat)
